c Random generated cnf formula, satisfiable: false
p cnf 10 50
7 -1 -3 0
1 6 -7 0
-7 6 2 0
-5 -3 -6 0
4 -6 7 0
4 5 -1 0
-10 4 2 0
2 9 7 0
-2 -1 5 0
1 -5 7 0
-5 -1 -6 0
-9 7 -1 0
-3 8 2 0
5 -7 3 0
-7 10 4 0
9 -3 6 0
-4 -3 5 0
1 7 -8 0
1 4 8 0
10 5 1 0
-4 -5 1 0
-5 10 -8 0
3 10 8 0
6 3 -8 0
3 -8 -1 0
8 -5 -7 0
-3 -10 -8 0
2 10 5 0
-1 -2 -3 0
5 -10 3 0
-9 4 2 0
-7 5 3 0
-4 -3 1 0
-7 -4 -1 0
9 -1 -3 0
-9 -6 -8 0
-2 -7 3 0
-9 -6 -1 0
4 -6 -2 0
9 -4 5 0
-5 10 -4 0
7 -5 6 0
5 10 -9 0
6 -10 -4 0
5 -8 -1 0
-10 4 5 0
-6 -8 -4 0
9 10 -3 0
6 -7 1 0
10 4 -3 0
